% seed = 3502563

mint = 59;
% maxt = 121;

nActs = 22;
dur = [0,6,1,10,1,5,6,9,8,10,6,2,3,7,9,4,7,5,10,8,4,0];

nSkills = 4;
sreq = [| 0,0,0,0,
	| 0,2,2,0,
	| 0,2,0,3,
	| 3,2,0,0,
	| 0,1,0,1,
	| 0,2,0,2,
	| 2,0,0,1,
	| 0,1,0,1,
	| 3,2,0,0,
	| 1,0,3,0,
	| 1,0,0,3,
	| 0,0,1,1,
	| 3,0,1,0,
	| 0,3,0,2,
	| 0,0,3,3,
	| 0,0,3,3,
	| 0,3,1,0,
	| 0,0,2,2,
	| 3,0,0,1,
	| 0,2,1,0,
	| 2,0,0,2,
	| 0,0,0,0, |];

nResources = 15;
mastery = [| false,true,true,true,
	| true,true,false,false,
	| false,true,false,false,
	| false,false,true,false,
	| false,false,true,false,
	| true,false,false,true,
	| true,true,false,false,
	| false,false,true,false,
	| true,true,false,true,
	| true,false,true,true,
	| true,false,false,false,
	| false,false,true,true,
	| true,false,false,false,
	| false,true,true,true,
	| true,false,false,false, |];

nPrecs = 31;
pred = [1,1,1,2,2,2,3,3,3,4,4,5,6,7,7,8,9,10,11,12,13,14,15,15,16,17,18,18,19,20,21];
succ = [2,3,4,19,20,5,9,10,7,13,8,6,21,17,15,9,11,12,16,18,14,16,19,20,17,18,19,21,22,22,22];

nUnrels = 107;
unpred = [2,2,2,2,2,2,2,2,2,2,2,2,2,2,3,3,3,3,3,3,4,4,4,4,4,4,4,5,5,5,5,5,5,5,5,5,5,5,5,5,5,6,6,6,6,6,6,6,6,6,6,6,6,6,6,7,7,7,7,7,7,7,7,8,8,8,8,8,8,9,9,9,9,9,9,10,10,10,10,10,10,10,11,11,11,11,11,12,12,12,12,12,12,13,13,14,14,15,15,15,15,16,17,18,19,19,20];
unsucc = [3,4,7,8,9,10,11,12,13,14,15,16,17,18,4,5,6,8,13,14,5,6,7,10,12,15,20,7,8,9,10,11,12,13,14,15,16,17,18,19,20,7,8,9,10,11,12,13,14,15,16,17,18,19,20,8,9,10,11,12,13,14,16,10,12,13,14,15,20,10,12,13,14,15,20,11,13,14,15,16,17,20,12,13,14,15,20,13,14,15,16,17,20,15,20,15,20,16,17,18,21,20,20,20,20,21,21];

USEFUL_RES = [{},
	{1,2,3,4,5,7,8,9,10,12,14},
	{1,2,3,6,7,9,10,12,14},
	{1,2,3,6,7,9,10,11,13,14,15},
	{1,2,3,6,7,9,10,12,14},
	{1,2,3,6,7,9,10,12,14},
	{1,2,6,7,9,10,11,12,13,14,15},
	{1,2,3,6,7,9,10,12,14},
	{1,2,3,6,7,9,10,11,13,14,15},
	{1,2,4,5,6,7,8,9,10,11,12,13,14,15},
	{1,2,6,7,9,10,11,12,13,14,15},
	{1,4,5,6,8,9,10,12,14},
	{1,2,4,5,6,7,8,9,10,11,12,13,14,15},
	{1,2,3,6,7,9,10,12,14},
	{1,4,5,6,8,9,10,12,14},
	{1,4,5,6,8,9,10,12,14},
	{1,2,3,4,5,7,8,9,10,12,14},
	{1,4,5,6,8,9,10,12,14},
	{1,2,6,7,9,10,11,12,13,14,15},
	{1,2,3,4,5,7,8,9,10,12,14},
	{1,2,6,7,9,10,11,12,13,14,15},
	{}];

POTENTIAL_ACT = [{2,3,4,5,6,7,8,9,10,11,12,13,14,15,16,17,18,19,20,21},
	{2,3,4,5,6,7,8,9,10,11,13,14,17,19,20,21},
	{2,3,4,5,6,8,9,14,17,20},
	{2,10,12,13,15,16,17,18,20},
	{2,10,12,13,15,16,17,18,20},
	{3,4,5,6,7,8,9,10,11,12,13,14,15,16,18,19,21},
	{2,3,4,5,6,7,8,9,10,11,13,14,17,19,20,21},
	{2,10,12,13,15,16,17,18,20},
	{2,3,4,5,6,7,8,9,10,11,12,13,14,15,16,17,18,19,20,21},
	{2,3,4,5,6,7,8,9,10,11,12,13,14,15,16,17,18,19,20,21},
	{4,7,9,10,11,13,19,21},
	{2,3,5,6,7,8,10,11,12,13,14,15,16,17,18,19,20,21},
	{4,7,9,10,11,13,19,21},
	{2,3,4,5,6,7,8,9,10,11,12,13,14,15,16,17,18,19,20,21},
	{4,7,9,10,11,13,19,21}];
